outputs/case_93.model.txt
capital_adequacy_ratio = 120
social_housing_only_rental = False
net_worth_ratio = 3/2
real_estate_total_investment = 400000000
self_use_real_estate_investment = 100000000
real_estate_in_use = False
net_worth = 500000000
level_4_measures_executed = False
capital_fund = 1000000000
real_estate_valuation_done = True
owner_equity_total = 300000000
improvement_plan_executed = False
level_3_measures_executed = True
improvement_plan_submitted = False
real_estate_has_income = False
self_use_real_estate_limit = 1
real_estate_investment_limit = 1
violation_of_investment_regulations = False
capital_level_2_measures_executed = False
capital_level = 3
social_housing_exemption = False
violate_146_8 = False
violate_146_2 = False
violate_146_9 = False
violate_146_4 = False
violate_146_3 = False
penalty = False
real_estate_investment_compliance = False
violate_146_1 = False
real_estate_valuation_required = True
violate_146_6 = False
violate_146_7 = False
capital_level_4_measures_executed = False
violate_146_5 = False
capital_level_3_measures_executed = True